5 5
2 86 0 43 4 82 1 40 3 47
2 41 4 47 3 20 1 77 0 65
1 68 0 24 4 36 2 45 3 2
2 28 4 26 0 23 3 79 1 36
4 91 1 6 0 35 2 38 3 35
-1
0 3 5
0 1 2 3 5
0 2 3 5
0 2 3 5
0 1 3 5
-2
336 416
58 128 163 395
129 164 279
82 92 225
92 173 267

356 6
11 22 1 17 9
10 21 8 3 19
5 0 15 23 13
7 24 18 4 14
20 6 16 2 12
